&BANDS
  prefix = 'NaCl'
  outdir = '/home/ataur/wrkdir/qe-out/'
  filband = 'NaCl_bands.dat'
  lsym = .true
/
