&CONTROL
  calculation = 'bands'
 ! etot_conv_thr =   2.0000000000d-04
 ! forc_conv_thr =   1.0000000000d-03
  outdir = '/home/ataur/wrkdir/qe-out/'
  prefix = 'NaCl'
  pseudo_dir = './'
  verbosity = 'high'
/
&SYSTEM
  ecutrho =   320.0
  ecutwfc =   40.0
  ibrav = 0
  nat = 2
  nosym = .false. ! deafault = false
  ntyp = 2
  occupations = 'fixed' !'smearing'
 ! smearing = 'cold'
 ! degauss =   2.7500000000d-02
 nbnd = 18
/
&ELECTRONS
  conv_thr = 1.0000000000d-8
  electron_maxstep = 80
  mixing_beta =   4.0000000000d-01
/
ATOMIC_SPECIES
Cl     35.453 cl_pbe_v1.4.uspp.F.UPF
Na     22.98977 na_pbe_v1.5.uspp.F.UPF
ATOMIC_POSITIONS (crystal)
Cl               0.5000000000        0.5000000000        0.5000000000
Na              -0.0000000000        0.0000000000       -0.0000000000
K_POINTS crystal_b
6
0.0000000000	0.0000000000	0.0000000000 20 !G
0.5000000000	0.0000000000	0.5000000000 20 !X
0.5000000000	0.2500000000	0.7500000000 20 !W
0.3750000000	0.3750000000	0.7500000000 20 !K
0.0000000000	0.0000000000	0.0000000000 20 !G
0.5000000000	0.5000000000	0.5000000000 20 !L
CELL_PARAMETERS (angstrom)
  -2.851178150  -2.851178150   0.000000000
  -2.851178150   0.000000000  -2.851178150
   0.000000000  -2.851178150  -2.851178150
