&CONTROL
  calculation = 'bands'
  etot_conv_thr =   1.0000000000d-05
  forc_conv_thr =   5.0000000000d-05
  outdir = '/home/ataur/wrkdir/qe/SiC/given/'
  prefix = 'SiC'
  pseudo_dir = '/home/ataur/wrkdir/qe/SiC/given/'
  tprnfor = .true.
  tstress = .true.
  verbosity = 'high'
/
&SYSTEM
  ibrav = 2
  celldm(1) = 8.2388 ! a = 8.2388 Bohr from vc-relax.
  nat = 2
  ntyp = 2
  ecutwfc = 45
  nbnd = 12
  nosym = .false.
  occupations = 'fixed' ! 'smearing' for metallic behaviour
 ! smearing = 'cold'
/
&ELECTRONS
  conv_thr =   2.0000000000d-10
  electron_maxstep = 80
  mixing_beta =   4.0000000000d-01
/
ATOMIC_SPECIES
C      12.0107 C.pbe-n-kjpaw_psl.1.0.0.UPF
Si     28.0855 Si.pbe-n-rrkjus_psl.1.0.0.UPF
ATOMIC_POSITIONS crystal
C            0.0000000000       0.0000000000       0.0000000000
Si           0.7500000000       0.7500000000       0.7500000000
K_POINTS crystal_b
7
0.0000000000	0.0000000000	0.0000000000 20 !G
0.5000000000	0.0000000000	0.5000000000 20 !X
0.5000000000	0.2500000000	0.7500000000 20 !W
0.3750000000	0.3750000000	0.7500000000 20 !K
0.0000000000	0.0000000000	0.0000000000 20 !G
0.5000000000	0.5000000000	0.5000000000 20 !L
0.6250000000	0.2500000000	0.6250000000 20 !U
