&BANDS
 prefix = 'SiC'
 outdir = '/home/ataur/wrkdir/qe/SiC/given/'
 filband = 'SiC_bands.dat'
 lsym = .true.
/
